param set_len = 24;
param target = 62222151;
param values := [0] 4755445 [1] 5343524 [2] 5306135 [3] 6518217 [4] 4420806 [5] 3621351 [6] 7506087 [7] 8072879 [8] 5818281 [9] 1758449 [10] 1500379 [11] 2349270 [12] 4583817 [13] 1165542 [14] 7493089 [15] 5817624 [16] 7640273 [17] 7514487 [18] 3252092 [19] 8044771 [20] 1009940 [21] 3588160 [22] 4869787 [23] 7905109 ;
